\ENCODING=ISO-8859-1
\Problem name: IloCplex

Minimize
 obj: y_1 + y_2 + y_3 + y_4 + y_5 + y_6 + y_7 + y_8 + y_9 + y_10 + y_11 + y_12
Subject To
 Cst_firstype_1:    1200 x_1_1 + 1700 x_2_1 + 1500 x_3_1 + 1400 x_4_1
                    + 1700 x_5_1 + 1400 x_6_1 + 1200 x_7_1 + 1900 x_8_1
                    + 1800 x_9_1 + 1600 x_10_1 + 1700 x_11_1 + 1100 x_12_1
                    - 6000 y_1 <= 0
 Cst_firstype_2:    1200 x_1_2 + 1700 x_2_2 + 1500 x_3_2 + 1400 x_4_2
                    + 1700 x_5_2 + 1400 x_6_2 + 1200 x_7_2 + 1900 x_8_2
                    + 1800 x_9_2 + 1600 x_10_2 + 1700 x_11_2 + 1100 x_12_2
                    - 6000 y_2 <= 0
 Cst_firstype_3:    1200 x_1_3 + 1700 x_2_3 + 1500 x_3_3 + 1400 x_4_3
                    + 1700 x_5_3 + 1400 x_6_3 + 1200 x_7_3 + 1900 x_8_3
                    + 1800 x_9_3 + 1600 x_10_3 + 1700 x_11_3 + 1100 x_12_3
                    - 6000 y_3 <= 0
 Cst_firstype_4:    1200 x_1_4 + 1700 x_2_4 + 1500 x_3_4 + 1400 x_4_4
                    + 1700 x_5_4 + 1400 x_6_4 + 1200 x_7_4 + 1900 x_8_4
                    + 1800 x_9_4 + 1600 x_10_4 + 1700 x_11_4 + 1100 x_12_4
                    - 6000 y_4 <= 0
 Cst_firstype_5:    1200 x_1_5 + 1700 x_2_5 + 1500 x_3_5 + 1400 x_4_5
                    + 1700 x_5_5 + 1400 x_6_5 + 1200 x_7_5 + 1900 x_8_5
                    + 1800 x_9_5 + 1600 x_10_5 + 1700 x_11_5 + 1100 x_12_5
                    - 6000 y_5 <= 0
 Cst_firstype_6:    1200 x_1_6 + 1700 x_2_6 + 1500 x_3_6 + 1400 x_4_6
                    + 1700 x_5_6 + 1400 x_6_6 + 1200 x_7_6 + 1900 x_8_6
                    + 1800 x_9_6 + 1600 x_10_6 + 1700 x_11_6 + 1100 x_12_6
                    - 6000 y_6 <= 0
 Cst_firstype_7:    1200 x_1_7 + 1700 x_2_7 + 1500 x_3_7 + 1400 x_4_7
                    + 1700 x_5_7 + 1400 x_6_7 + 1200 x_7_7 + 1900 x_8_7
                    + 1800 x_9_7 + 1600 x_10_7 + 1700 x_11_7 + 1100 x_12_7
                    - 6000 y_7 <= 0
 Cst_firstype_8:    1200 x_1_8 + 1700 x_2_8 + 1500 x_3_8 + 1400 x_4_8
                    + 1700 x_5_8 + 1400 x_6_8 + 1200 x_7_8 + 1900 x_8_8
                    + 1800 x_9_8 + 1600 x_10_8 + 1700 x_11_8 + 1100 x_12_8
                    - 6000 y_8 <= 0
 Cst_firstype_9:    1200 x_1_9 + 1700 x_2_9 + 1500 x_3_9 + 1400 x_4_9
                    + 1700 x_5_9 + 1400 x_6_9 + 1200 x_7_9 + 1900 x_8_9
                    + 1800 x_9_9 + 1600 x_10_9 + 1700 x_11_9 + 1100 x_12_9
                    - 6000 y_9 <= 0
 Cst_firstype_10:   1200 x_1_10 + 1700 x_2_10 + 1500 x_3_10 + 1400 x_4_10
                    + 1700 x_5_10 + 1400 x_6_10 + 1200 x_7_10 + 1900 x_8_10
                    + 1800 x_9_10 + 1600 x_10_10 + 1700 x_11_10 + 1100 x_12_10
                    - 6000 y_10 <= 0
 Cst_firstype_11:   1200 x_1_11 + 1700 x_2_11 + 1500 x_3_11 + 1400 x_4_11
                    + 1700 x_5_11 + 1400 x_6_11 + 1200 x_7_11 + 1900 x_8_11
                    + 1800 x_9_11 + 1600 x_10_11 + 1700 x_11_11 + 1100 x_12_11
                    - 6000 y_11 <= 0
 Cst_firstype_12:   1200 x_1_12 + 1700 x_2_12 + 1500 x_3_12 + 1400 x_4_12
                    + 1700 x_5_12 + 1400 x_6_12 + 1200 x_7_12 + 1900 x_8_12
                    + 1800 x_9_12 + 1600 x_10_12 + 1700 x_11_12 + 1100 x_12_12
                    - 6000 y_12 <= 0
 Cst_secondtype_1:  x_1_1 + x_1_2 + x_1_3 + x_1_4 + x_1_5 + x_1_6 + x_1_7
                    + x_1_8 + x_1_9 + x_1_10 + x_1_11 + x_1_12  = 1
 Cst_secondtype_2:  x_2_1 + x_2_2 + x_2_3 + x_2_4 + x_2_5 + x_2_6 + x_2_7
                    + x_2_8 + x_2_9 + x_2_10 + x_2_11 + x_2_12  = 1
 Cst_secondtype_3:  x_3_1 + x_3_2 + x_3_3 + x_3_4 + x_3_5 + x_3_6 + x_3_7
                    + x_3_8 + x_3_9 + x_3_10 + x_3_11 + x_3_12  = 1
 Cst_secondtype_4:  x_4_1 + x_4_2 + x_4_3 + x_4_4 + x_4_5 + x_4_6 + x_4_7
                    + x_4_8 + x_4_9 + x_4_10 + x_4_11 + x_4_12  = 1
 Cst_secondtype_5:  x_5_1 + x_5_2 + x_5_3 + x_5_4 + x_5_5 + x_5_6 + x_5_7
                    + x_5_8 + x_5_9 + x_5_10 + x_5_11 + x_5_12  = 1
 Cst_secondtype_6:  x_6_1 + x_6_2 + x_6_3 + x_6_4 + x_6_5 + x_6_6 + x_6_7
                    + x_6_8 + x_6_9 + x_6_10 + x_6_11 + x_6_12  = 1
 Cst_secondtype_7:  x_7_1 + x_7_2 + x_7_3 + x_7_4 + x_7_5 + x_7_6 + x_7_7
                    + x_7_8 + x_7_9 + x_7_10 + x_7_11 + x_7_12  = 1
 Cst_secondtype_8:  x_8_1 + x_8_2 + x_8_3 + x_8_4 + x_8_5 + x_8_6 + x_8_7
                    + x_8_8 + x_8_9 + x_8_10 + x_8_11 + x_8_12  = 1
 Cst_secondtype_9:  x_9_1 + x_9_2 + x_9_3 + x_9_4 + x_9_5 + x_9_6 + x_9_7
                    + x_9_8 + x_9_9 + x_9_10 + x_9_11 + x_9_12  = 1
 Cst_secondtype_10: x_10_1 + x_10_2 + x_10_3 + x_10_4 + x_10_5 + x_10_6
                    + x_10_7 + x_10_8 + x_10_9 + x_10_10 + x_10_11 + x_10_12
                     = 1
 Cst_secondtype_11: x_11_1 + x_11_2 + x_11_3 + x_11_4 + x_11_5 + x_11_6
                    + x_11_7 + x_11_8 + x_11_9 + x_11_10 + x_11_11 + x_11_12
                     = 1
 Cst_secondtype_12: x_12_1 + x_12_2 + x_12_3 + x_12_4 + x_12_5 + x_12_6
                    + x_12_7 + x_12_8 + x_12_9 + x_12_10 + x_12_11 + x_12_12
                     = 1
Bounds
 0 <= x_1_1 <= 1
 0 <= x_2_1 <= 1
 0 <= x_3_1 <= 1
 0 <= x_4_1 <= 1
 0 <= x_5_1 <= 1
 0 <= x_6_1 <= 1
 0 <= x_7_1 <= 1
 0 <= x_8_1 <= 1
 0 <= x_9_1 <= 1
 0 <= x_10_1 <= 1
 0 <= x_11_1 <= 1
 0 <= x_12_1 <= 1
 0 <= y_1 <= 1
 0 <= x_1_2 <= 1
 0 <= x_2_2 <= 1
 0 <= x_3_2 <= 1
 0 <= x_4_2 <= 1
 0 <= x_5_2 <= 1
 0 <= x_6_2 <= 1
 0 <= x_7_2 <= 1
 0 <= x_8_2 <= 1
 0 <= x_9_2 <= 1
 0 <= x_10_2 <= 1
 0 <= x_11_2 <= 1
 0 <= x_12_2 <= 1
 0 <= y_2 <= 1
 0 <= x_1_3 <= 1
 0 <= x_2_3 <= 1
 0 <= x_3_3 <= 1
 0 <= x_4_3 <= 1
 0 <= x_5_3 <= 1
 0 <= x_6_3 <= 1
 0 <= x_7_3 <= 1
 0 <= x_8_3 <= 1
 0 <= x_9_3 <= 1
 0 <= x_10_3 <= 1
 0 <= x_11_3 <= 1
 0 <= x_12_3 <= 1
 0 <= y_3 <= 1
 0 <= x_1_4 <= 1
 0 <= x_2_4 <= 1
 0 <= x_3_4 <= 1
 0 <= x_4_4 <= 1
 0 <= x_5_4 <= 1
 0 <= x_6_4 <= 1
 0 <= x_7_4 <= 1
 0 <= x_8_4 <= 1
 0 <= x_9_4 <= 1
 0 <= x_10_4 <= 1
 0 <= x_11_4 <= 1
 0 <= x_12_4 <= 1
 0 <= y_4 <= 1
 0 <= x_1_5 <= 1
 0 <= x_2_5 <= 1
 0 <= x_3_5 <= 1
 0 <= x_4_5 <= 1
 0 <= x_5_5 <= 1
 0 <= x_6_5 <= 1
 0 <= x_7_5 <= 1
 0 <= x_8_5 <= 1
 0 <= x_9_5 <= 1
 0 <= x_10_5 <= 1
 0 <= x_11_5 <= 1
 0 <= x_12_5 <= 1
 0 <= y_5 <= 1
 0 <= x_1_6 <= 1
 0 <= x_2_6 <= 1
 0 <= x_3_6 <= 1
 0 <= x_4_6 <= 1
 0 <= x_5_6 <= 1
 0 <= x_6_6 <= 1
 0 <= x_7_6 <= 1
 0 <= x_8_6 <= 1
 0 <= x_9_6 <= 1
 0 <= x_10_6 <= 1
 0 <= x_11_6 <= 1
 0 <= x_12_6 <= 1
 0 <= y_6 <= 1
 0 <= x_1_7 <= 1
 0 <= x_2_7 <= 1
 0 <= x_3_7 <= 1
 0 <= x_4_7 <= 1
 0 <= x_5_7 <= 1
 0 <= x_6_7 <= 1
 0 <= x_7_7 <= 1
 0 <= x_8_7 <= 1
 0 <= x_9_7 <= 1
 0 <= x_10_7 <= 1
 0 <= x_11_7 <= 1
 0 <= x_12_7 <= 1
 0 <= y_7 <= 1
 0 <= x_1_8 <= 1
 0 <= x_2_8 <= 1
 0 <= x_3_8 <= 1
 0 <= x_4_8 <= 1
 0 <= x_5_8 <= 1
 0 <= x_6_8 <= 1
 0 <= x_7_8 <= 1
 0 <= x_8_8 <= 1
 0 <= x_9_8 <= 1
 0 <= x_10_8 <= 1
 0 <= x_11_8 <= 1
 0 <= x_12_8 <= 1
 0 <= y_8 <= 1
 0 <= x_1_9 <= 1
 0 <= x_2_9 <= 1
 0 <= x_3_9 <= 1
 0 <= x_4_9 <= 1
 0 <= x_5_9 <= 1
 0 <= x_6_9 <= 1
 0 <= x_7_9 <= 1
 0 <= x_8_9 <= 1
 0 <= x_9_9 <= 1
 0 <= x_10_9 <= 1
 0 <= x_11_9 <= 1
 0 <= x_12_9 <= 1
 0 <= y_9 <= 1
 0 <= x_1_10 <= 1
 0 <= x_2_10 <= 1
 0 <= x_3_10 <= 1
 0 <= x_4_10 <= 1
 0 <= x_5_10 <= 1
 0 <= x_6_10 <= 1
 0 <= x_7_10 <= 1
 0 <= x_8_10 <= 1
 0 <= x_9_10 <= 1
 0 <= x_10_10 <= 1
 0 <= x_11_10 <= 1
 0 <= x_12_10 <= 1
 0 <= y_10 <= 1
 0 <= x_1_11 <= 1
 0 <= x_2_11 <= 1
 0 <= x_3_11 <= 1
 0 <= x_4_11 <= 1
 0 <= x_5_11 <= 1
 0 <= x_6_11 <= 1
 0 <= x_7_11 <= 1
 0 <= x_8_11 <= 1
 0 <= x_9_11 <= 1
 0 <= x_10_11 <= 1
 0 <= x_11_11 <= 1
 0 <= x_12_11 <= 1
 0 <= y_11 <= 1
 0 <= x_1_12 <= 1
 0 <= x_2_12 <= 1
 0 <= x_3_12 <= 1
 0 <= x_4_12 <= 1
 0 <= x_5_12 <= 1
 0 <= x_6_12 <= 1
 0 <= x_7_12 <= 1
 0 <= x_8_12 <= 1
 0 <= x_9_12 <= 1
 0 <= x_10_12 <= 1
 0 <= x_11_12 <= 1
 0 <= x_12_12 <= 1
 0 <= y_12 <= 1
Binaries
 x_1_1  x_2_1  x_3_1  x_4_1  x_5_1  x_6_1  x_7_1  x_8_1  x_9_1  x_10_1  x_11_1 
 x_12_1  y_1  x_1_2  x_2_2  x_3_2  x_4_2  x_5_2  x_6_2  x_7_2  x_8_2  x_9_2 
 x_10_2  x_11_2  x_12_2  y_2  x_1_3  x_2_3  x_3_3  x_4_3  x_5_3  x_6_3  x_7_3 
 x_8_3  x_9_3  x_10_3  x_11_3  x_12_3  y_3  x_1_4  x_2_4  x_3_4  x_4_4  x_5_4 
 x_6_4  x_7_4  x_8_4  x_9_4  x_10_4  x_11_4  x_12_4  y_4  x_1_5  x_2_5  x_3_5 
 x_4_5  x_5_5  x_6_5  x_7_5  x_8_5  x_9_5  x_10_5  x_11_5  x_12_5  y_5  x_1_6 
 x_2_6  x_3_6  x_4_6  x_5_6  x_6_6  x_7_6  x_8_6  x_9_6  x_10_6  x_11_6 
 x_12_6  y_6  x_1_7  x_2_7  x_3_7  x_4_7  x_5_7  x_6_7  x_7_7  x_8_7  x_9_7 
 x_10_7  x_11_7  x_12_7  y_7  x_1_8  x_2_8  x_3_8  x_4_8  x_5_8  x_6_8  x_7_8 
 x_8_8  x_9_8  x_10_8  x_11_8  x_12_8  y_8  x_1_9  x_2_9  x_3_9  x_4_9  x_5_9 
 x_6_9  x_7_9  x_8_9  x_9_9  x_10_9  x_11_9  x_12_9  y_9  x_1_10  x_2_10 
 x_3_10  x_4_10  x_5_10  x_6_10  x_7_10  x_8_10  x_9_10  x_10_10  x_11_10 
 x_12_10  y_10  x_1_11  x_2_11  x_3_11  x_4_11  x_5_11  x_6_11  x_7_11  x_8_11 
 x_9_11  x_10_11  x_11_11  x_12_11  y_11  x_1_12  x_2_12  x_3_12  x_4_12 
 x_5_12  x_6_12  x_7_12  x_8_12  x_9_12  x_10_12  x_11_12  x_12_12  y_12 
End
